17	4
13	14	13	13	
0	0	0	0	0	3	2	3	4	
1	0	5	7	7	3	10	11	15	
9	0	8	5	4	3	5	8	12	
5	0	10	0	8	1	17	
6	0	6	10	2	3	6	7	9	
100	2	0	0	10	3	14	17	17	
225	5	0	4	0	3	13	16	17	
175	0	0	7	0	1	17	
100	0	0	10	0	3	11	17	17	
200	0	1	0	0	2	12	17	
250	2	0	0	8	1	17	
100	2	0	0	0	1	17	
10	0	7	5	0	3	17	17	17	
2	9	0	0	0	2	17	17	
8	0	7	0	1	3	16	17	17	
9	0	5	0	0	3	17	17	17	
0	0	0	0	0	0	
